
n_res = 6;
rcap = [22, 27, 23, 23, 1554, 1575];
rtype = [1, 1, 1, 1, 2, 2];
n_tasks = 100;
modes =  [{1, 2, 3}, {4, 5, 6}, {7, 8, 9}, {10, 11, 12}, {13, 14, 15}, {16, 17, 18}, {19, 20, 21}, {22, 23, 24}, {25, 26, 27}, {28, 29, 30}, {31, 32, 33}, {34, 35, 36}, {37, 38, 39}, {40, 41, 42}, {43, 44, 45}, {46, 47, 48}, {49, 50, 51}, {52, 53, 54}, {55, 56, 57}, {58, 59, 60}, {61, 62, 63}, {64, 65, 66}, {67, 68, 69}, {70, 71, 72}, {73, 74, 75}, {76, 77, 78}, {79, 80, 81}, {82, 83, 84}, {85, 86, 87}, {88, 89, 90}, {91, 92, 93}, {94, 95, 96}, {97, 98, 99}, {100, 101, 102}, {103, 104, 105}, {106, 107, 108}, {109, 110, 111}, {112, 113, 114}, {115, 116, 117}, {118, 119, 120}, {121, 122, 123}, {124, 125, 126}, {127, 128, 129}, {130, 131, 132}, {133, 134, 135}, {136, 137, 138}, {139, 140, 141}, {142, 143, 144}, {145, 146, 147}, {148, 149, 150}, {151, 152, 153}, {154, 155, 156}, {157, 158, 159}, {160, 161, 162}, {163, 164, 165}, {166, 167, 168}, {169, 170, 171}, {172, 173, 174}, {175, 176, 177}, {178, 179, 180}, {181, 182, 183}, {184, 185, 186}, {187, 188, 189}, {190, 191, 192}, {193, 194, 195}, {196, 197, 198}, {199, 200, 201}, {202, 203, 204}, {205, 206, 207}, {208, 209, 210}, {211, 212, 213}, {214, 215, 216}, {217, 218, 219}, {220, 221, 222}, {223, 224, 225}, {226, 227, 228}, {229, 230, 231}, {232, 233, 234}, {235, 236, 237}, {238, 239, 240}, {241, 242, 243}, {244, 245, 246}, {247, 248, 249}, {250, 251, 252}, {253, 254, 255}, {256, 257, 258}, {259, 260, 261}, {262, 263, 264}, {265, 266, 267}, {268, 269, 270}, {271, 272, 273}, {274, 275, 276}, {277, 278, 279}, {280, 281, 282}, {283, 284, 285}, {286, 287, 288}, {289, 290, 291}, {292, 293, 294}, {295, 296, 297}, {298, 299, 300}];
succ =  [{82, 54, 46, 42, 40, 34, 30, 27, 20, 14, 3}, {69, 64, 62, 56, 55, 54, 52, 49, 48, 46, 41, 38, 37, 30, 26, 19}, {100, 97, 84, 81, 69, 66, 64, 62, 60, 57, 53, 52, 51, 48, 45, 44, 41, 39, 38, 22}, {84, 82, 69, 67, 63, 61, 57, 55, 52, 49, 48, 47, 46, 45, 41, 27, 26}, {84, 83, 82, 81, 64, 62, 60, 56, 54, 52, 50, 41, 39, 36, 27}, {83, 82, 66, 64, 60, 51, 50, 49, 48, 44, 41, 37, 25}, {100, 97, 95, 91, 84, 83, 82, 81, 67, 63, 60, 57, 51, 50, 44, 20}, {100, 97, 96, 95, 94, 93, 91, 84, 83, 70, 66, 64, 62, 60, 58, 57, 52, 51, 50, 37}, {84, 65, 61, 60, 57, 51, 46, 41, 24}, {99, 97, 96, 95, 92, 91, 90, 88, 86, 68, 66, 62, 61, 60, 57, 53, 50, 48, 38}, {84, 68, 67, 63, 61, 50, 41, 27}, {99, 97, 90, 88, 84, 82, 78, 69, 67, 66, 65, 58, 48, 47, 44}, {99, 96, 93, 89, 82, 69, 65, 58, 57, 52, 30}, {98, 97, 96, 95, 93, 91, 88, 85, 76, 75, 67, 62, 61, 55, 53, 51}, {96, 94, 90, 77, 73, 68, 67, 63, 62, 55, 35}, {96, 95, 94, 91, 88, 87, 84, 83, 75, 69, 66, 61, 59, 52, 50}, {97, 94, 92, 90, 88, 87, 85, 82, 69, 67, 66, 59, 58, 53, 43}, {97, 95, 94, 92, 91, 87, 84, 79, 77, 75, 72, 64, 63, 61, 50}, {97, 96, 92, 91, 90, 88, 87, 86, 85, 84, 83, 79, 78, 74, 66, 65, 60, 58}, {99, 96, 94, 88, 80, 77, 72, 68, 65, 58, 52, 48}, {98, 97, 95, 94, 93, 92, 90, 77, 74, 71, 68, 60, 59, 50}, {98, 96, 95, 93, 90, 87, 85, 83, 77, 74, 72, 67, 58, 50}, {96, 94, 87, 79, 77, 74, 50, 41}, {97, 96, 95, 94, 92, 89, 88, 85, 83, 79, 74, 72, 58, 53}, {99, 96, 95, 89, 88, 86, 85, 78, 77, 71, 65, 62, 58, 57}, {99, 95, 92, 90, 88, 87, 85, 81, 78, 74, 60, 44}, {97, 96, 95, 94, 91, 80, 78, 66, 65, 58, 51}, {98, 96, 95, 85, 77, 75, 72, 57, 52, 50}, {99, 90, 88, 83, 78, 65, 62, 60, 57, 54}, {97, 91, 88, 87, 86, 79, 78, 76, 74, 67, 66, 44}, {97, 93, 91, 90, 84, 75, 74, 67, 65, 59, 53}, {98, 91, 90, 88, 87, 86, 85, 80, 79, 78, 76, 72, 66, 61}, {97, 93, 77, 73, 72, 61, 58, 52}, {98, 78, 73, 61, 41}, {99, 98, 92, 91, 88, 80, 79, 78, 60, 58}, {98, 97, 90, 88, 87, 80, 79, 77, 76, 75, 72, 71}, {92, 88, 79, 78, 77, 76, 75, 68, 61}, {87, 76, 75, 74, 73, 63, 59}, {93, 79, 78, 73, 72, 61, 58}, {98, 96, 95, 92, 91, 88, 79, 78, 74, 72}, {93, 91, 90, 88, 80, 72, 71, 58}, {92, 90, 80, 76, 75, 73, 71, 59}, {98, 95, 91, 79, 77, 74, 73, 72, 71}, {98, 94, 80, 77, 75, 73, 72, 71}, {99, 87, 80, 77, 76, 75, 73, 71}, {99, 94, 90, 89, 72, 71, 68}, {96, 95, 91, 89, 87, 86, 74}, {93, 89, 75, 74, 73, 71}, {91, 89, 79, 77, 75, 73}, {89, 80, 78, 76, 65}, {87, 86, 74, 59}, {92, 90, 79, 78, 71}, {80, 78, 77, 73, 71}, {97, 94, 87, 77, 71}, {78, 71, 60}, {92, 91, 90, 88}, {87, 80, 76}, {76, 75}, {79, 72}, {89, 72}, {74, 71}, {74, 72}, {93, 71}, {99, 88}, {73}, {77}, {71}, {87}, {79}, {86}, {}, {}, {}, {}, {}, {}, {}, {}, {}, {}, {}, {}, {}, {}, {}, {}, {}, {}, {}, {}, {}, {}, {}, {}, {}, {}, {}, {}, {}, {}];
n_opt = 300;
dur = [17, 23, 29, 1, 20, 25, 4, 14, 17, 4, 8, 13, 1, 2, 24, 3, 6, 28, 10, 20, 25, 9, 20, 24, 8, 9, 30, 15, 19, 21, 4, 24, 25, 6, 10, 17, 8, 19, 23, 11, 22, 25, 2, 5, 25, 7, 23, 27, 15, 26, 27, 3, 22, 27, 8, 19, 21, 2, 15, 30, 6, 8, 16, 6, 7, 23, 2, 16, 17, 1, 14, 28, 21, 22, 29, 8, 15, 21, 7, 18, 22, 16, 28, 30, 13, 18, 21, 8, 22, 23, 8, 10, 30, 3, 5, 27, 13, 19, 27, 2, 12, 28, 6, 11, 15, 10, 12, 26, 8, 11, 12, 6, 19, 28, 9, 12, 21, 26, 27, 29, 13, 18, 27, 12, 13, 26, 3, 4, 5, 9, 14, 24, 16, 17, 29, 3, 26, 30, 15, 25, 30, 5, 9, 25, 19, 21, 25, 20, 25, 26, 5, 9, 20, 21, 27, 29, 3, 22, 23, 2, 3, 24, 11, 23, 25, 17, 20, 30, 8, 17, 25, 4, 13, 26, 14, 21, 22, 2, 7, 8, 15, 16, 25, 4, 21, 24, 2, 3, 5, 3, 15, 21, 1, 17, 30, 8, 10, 14, 7, 10, 11, 2, 6, 8, 10, 12, 27, 4, 16, 19, 10, 22, 23, 17, 20, 27, 5, 7, 16, 13, 16, 20, 9, 10, 25, 4, 13, 26, 9, 16, 30, 3, 7, 14, 1, 2, 12, 8, 16, 24, 11, 23, 24, 9, 23, 30, 8, 11, 13, 3, 4, 19, 6, 9, 10, 6, 12, 19, 10, 16, 21, 11, 15, 21, 1, 6, 30, 5, 6, 7, 3, 12, 17, 2, 3, 16, 2, 27, 29, 8, 19, 20, 14, 15, 24, 8, 17, 27, 5, 9, 15, 4, 11, 14, 9, 20, 21, 2, 7, 22];
rreq = [|1, 1, 1, 4, 3, 2, 1, 1, 1, 4, 2, 1, 1, 1, 1, 3, 2, 2, 1, 1, 1, 4, 4, 3, 5, 5, 5, 2, 1, 1, 3, 3, 2, 3, 2, 2, 4, 3, 2, 3, 3, 3, 4, 3, 3, 3, 2, 2, 3, 2, 2, 2, 1, 1, 1, 1, 1, 2, 2, 2, 5, 2, 1, 2, 2, 2, 1, 1, 1, 5, 4, 3, 4, 2, 2, 4, 4, 4, 3, 3, 3, 3, 3, 2, 2, 1, 1, 1, 1, 1, 5, 4, 4, 3, 3, 3, 5, 3, 3, 4, 4, 4, 3, 1, 1, 4, 4, 4, 5, 4, 3, 3, 2, 2, 3, 2, 2, 1, 1, 1, 4, 3, 3, 4, 4, 3, 4, 2, 1, 2, 1, 1, 3, 3, 3, 3, 3, 1, 5, 2, 2, 3, 3, 2, 2, 2, 2, 2, 2, 2, 4, 4, 4, 5, 4, 4, 2, 1, 1, 4, 3, 3, 3, 2, 2, 4, 3, 2, 4, 2, 2, 2, 2, 2, 2, 1, 1, 3, 3, 3, 2, 2, 2, 3, 3, 3, 4, 4, 4, 3, 3, 3, 3, 3, 2, 3, 3, 1, 5, 4, 4, 3, 3, 2, 2, 2, 2, 5, 3, 2, 4, 3, 1, 5, 3, 3, 3, 2, 2, 3, 3, 2, 1, 1, 1, 3, 3, 3, 3, 3, 3, 4, 3, 2, 5, 3, 3, 3, 3, 3, 4, 3, 3, 4, 4, 3, 3, 3, 3, 3, 2, 2, 5, 5, 5, 3, 3, 3, 2, 1, 1, 4, 3, 3, 3, 3, 3, 5, 3, 1, 4, 4, 3, 3, 2, 1, 5, 3, 3, 4, 3, 3, 3, 3, 3, 3, 3, 3, 4, 3, 2, 4, 3, 3, 1, 1, 1, 4, 4, 4
 |5, 3, 3, 4, 2, 2, 4, 3, 3, 4, 4, 4, 2, 2, 2, 4, 3, 3, 3, 3, 3, 4, 3, 3, 1, 1, 1, 5, 2, 2, 5, 3, 2, 4, 4, 3, 4, 3, 2, 3, 3, 2, 4, 3, 2, 4, 4, 3, 2, 1, 1, 5, 4, 3, 3, 2, 2, 4, 4, 4, 4, 4, 4, 2, 1, 1, 4, 3, 2, 1, 1, 1, 4, 4, 4, 4, 4, 4, 4, 3, 2, 4, 4, 3, 4, 2, 2, 3, 2, 1, 4, 3, 3, 4, 4, 3, 4, 3, 2, 4, 3, 3, 5, 4, 3, 5, 4, 3, 4, 4, 3, 4, 3, 2, 4, 2, 1, 3, 1, 1, 4, 4, 4, 3, 1, 1, 4, 2, 2, 2, 2, 2, 2, 2, 2, 4, 4, 4, 3, 2, 2, 5, 5, 5, 2, 1, 1, 2, 2, 2, 4, 4, 4, 4, 4, 4, 1, 1, 1, 5, 4, 2, 5, 4, 3, 3, 2, 1, 2, 2, 1, 1, 1, 1, 3, 3, 1, 3, 3, 3, 3, 2, 2, 3, 2, 2, 5, 5, 5, 3, 3, 3, 5, 4, 4, 3, 3, 1, 3, 3, 2, 3, 3, 3, 4, 3, 3, 4, 3, 2, 4, 3, 3, 5, 3, 3, 5, 4, 4, 4, 2, 2, 3, 3, 3, 5, 4, 4, 4, 3, 3, 4, 4, 4, 3, 3, 3, 3, 2, 2, 4, 3, 3, 1, 1, 1, 3, 2, 1, 1, 1, 1, 2, 2, 2, 3, 3, 2, 5, 5, 5, 4, 2, 2, 3, 2, 2, 3, 2, 1, 4, 3, 3, 4, 3, 3, 2, 2, 1, 4, 4, 3, 3, 3, 3, 3, 3, 3, 2, 1, 1, 5, 4, 4, 4, 3, 3, 3, 1, 1
 |4, 3, 3, 5, 4, 2, 5, 4, 2, 1, 1, 1, 4, 4, 4, 1, 1, 1, 5, 3, 3, 4, 3, 2, 2, 1, 1, 5, 3, 2, 3, 2, 2, 4, 3, 3, 4, 3, 1, 3, 3, 2, 2, 2, 2, 3, 3, 3, 2, 2, 2, 1, 1, 1, 5, 3, 3, 3, 2, 2, 4, 4, 4, 3, 2, 2, 4, 4, 4, 3, 2, 2, 4, 3, 1, 4, 3, 3, 5, 3, 2, 3, 3, 3, 3, 2, 2, 4, 4, 2, 5, 2, 2, 2, 2, 1, 4, 4, 3, 5, 5, 5, 5, 4, 3, 4, 3, 3, 3, 2, 2, 4, 3, 3, 2, 1, 1, 3, 3, 1, 5, 3, 3, 1, 1, 1, 5, 3, 3, 3, 3, 3, 2, 2, 1, 3, 2, 1, 5, 3, 2, 5, 3, 3, 3, 2, 1, 3, 3, 3, 1, 1, 1, 2, 2, 2, 2, 1, 1, 2, 1, 1, 4, 4, 3, 3, 3, 1, 4, 2, 2, 5, 3, 2, 2, 2, 2, 2, 1, 1, 3, 2, 2, 4, 3, 1, 3, 1, 1, 3, 3, 1, 3, 3, 1, 4, 4, 4, 3, 3, 1, 3, 2, 2, 3, 3, 2, 2, 1, 1, 5, 3, 1, 4, 4, 4, 3, 1, 1, 2, 1, 1, 2, 2, 2, 4, 4, 4, 5, 3, 3, 5, 4, 3, 3, 1, 1, 4, 4, 2, 4, 4, 4, 4, 4, 4, 3, 2, 2, 3, 3, 3, 5, 3, 1, 3, 1, 1, 3, 3, 1, 5, 3, 2, 3, 3, 3, 3, 2, 2, 2, 1, 1, 1, 1, 1, 3, 3, 2, 3, 3, 3, 4, 2, 2, 4, 4, 3, 4, 3, 3, 2, 2, 2, 4, 4, 4, 4, 4, 4
 |2, 1, 1, 4, 4, 3, 4, 3, 3, 4, 4, 4, 3, 3, 3, 3, 1, 1, 5, 3, 3, 5, 4, 3, 2, 2, 2, 3, 2, 2, 4, 2, 2, 4, 2, 2, 1, 1, 1, 3, 2, 1, 1, 1, 1, 2, 1, 1, 5, 3, 2, 1, 1, 1, 2, 2, 2, 2, 1, 1, 5, 4, 3, 4, 4, 4, 5, 4, 4, 5, 4, 3, 2, 1, 1, 3, 2, 2, 3, 2, 1, 3, 3, 3, 5, 5, 5, 4, 3, 3, 1, 1, 1, 3, 3, 3, 3, 2, 2, 5, 5, 5, 3, 3, 1, 5, 4, 4, 5, 4, 4, 5, 4, 4, 4, 4, 3, 1, 1, 1, 5, 5, 5, 3, 2, 2, 3, 3, 3, 4, 4, 4, 5, 3, 3, 2, 2, 2, 2, 1, 1, 5, 3, 2, 4, 2, 2, 4, 2, 2, 5, 4, 3, 4, 4, 3, 2, 1, 1, 1, 1, 1, 5, 3, 1, 5, 4, 3, 3, 3, 2, 1, 1, 1, 4, 4, 4, 2, 2, 2, 4, 4, 3, 4, 3, 3, 2, 1, 1, 5, 5, 5, 4, 3, 2, 2, 1, 1, 4, 3, 3, 1, 1, 1, 1, 1, 1, 1, 1, 1, 3, 3, 3, 4, 3, 3, 3, 3, 3, 5, 3, 3, 5, 5, 5, 2, 1, 1, 5, 2, 2, 4, 3, 2, 3, 2, 1, 3, 1, 1, 3, 3, 1, 4, 3, 1, 2, 1, 1, 5, 5, 5, 2, 2, 2, 3, 3, 3, 4, 2, 2, 4, 3, 2, 1, 1, 1, 3, 2, 2, 4, 3, 1, 3, 3, 2, 2, 2, 2, 4, 4, 4, 2, 2, 2, 3, 2, 1, 3, 2, 1, 4, 3, 3, 5, 3, 3, 4, 4, 3
 |15, 9, 8, 15, 12, 7, 21, 14, 11, 24, 20, 10, 18, 18, 16, 21, 13, 2, 24, 22, 17, 16, 10, 4, 27, 20, 20, 18, 10, 8, 27, 16, 8, 17, 8, 2, 16, 15, 15, 22, 19, 19, 28, 13, 8, 20, 20, 18, 8, 7, 7, 12, 10, 2, 17, 15, 6, 20, 18, 15, 22, 19, 17, 24, 22, 21, 14, 12, 11, 28, 14, 6, 10, 8, 5, 20, 14, 7, 24, 19, 14, 23, 20, 19, 19, 16, 15, 28, 18, 17, 14, 13, 10, 22, 18, 14, 4, 4, 2, 26, 22, 22, 27, 23, 20, 29, 27, 27, 24, 23, 22, 9, 9, 9, 23, 23, 19, 13, 11, 11, 11, 9, 4, 11, 9, 9, 24, 12, 6, 19, 11, 2, 5, 4, 3, 29, 27, 27, 14, 10, 5, 23, 19, 13, 22, 16, 13, 22, 18, 14, 26, 23, 20, 20, 20, 20, 17, 16, 16, 20, 20, 19, 11, 7, 6, 11, 8, 5, 26, 12, 6, 26, 26, 26, 24, 17, 7, 20, 18, 9, 17, 12, 8, 6, 6, 6, 17, 11, 8, 26, 19, 6, 8, 6, 6, 18, 14, 12, 20, 12, 10, 28, 18, 17, 23, 10, 5, 14, 13, 13, 18, 15, 14, 22, 20, 15, 21, 19, 16, 23, 22, 16, 20, 19, 18, 17, 17, 17, 12, 10, 5, 23, 16, 12, 11, 9, 9, 26, 13, 11, 15, 14, 13, 19, 18, 17, 17, 16, 15, 25, 14, 10, 18, 12, 9, 27, 22, 19, 20, 14, 10, 27, 23, 22, 7, 7, 3, 12, 9, 8, 23, 18, 17, 22, 14, 12, 29, 27, 24, 16, 13, 9, 10, 7, 4, 20, 20, 16, 20, 20, 18, 12, 7, 4, 26, 24, 15, 8, 6, 6
 |30, 26, 26, 20, 17, 12, 21, 19, 19, 29, 24, 22, 24, 13, 10, 20, 15, 12, 22, 14, 12, 23, 21, 13, 19, 19, 18, 11, 10, 7, 25, 24, 20, 3, 2, 2, 22, 20, 14, 26, 24, 24, 25, 22, 22, 26, 9, 5, 23, 15, 11, 21, 15, 12, 19, 16, 13, 10, 6, 3, 25, 22, 17, 10, 4, 3, 8, 4, 2, 23, 18, 17, 25, 21, 19, 28, 27, 26, 23, 18, 16, 22, 21, 18, 26, 19, 10, 7, 5, 3, 11, 11, 11, 19, 15, 12, 19, 14, 3, 11, 11, 9, 5, 4, 4, 17, 11, 10, 29, 28, 26, 18, 12, 7, 27, 25, 25, 22, 11, 11, 25, 25, 25, 23, 21, 14, 25, 21, 20, 7, 7, 6, 21, 16, 12, 22, 22, 22, 21, 18, 15, 19, 16, 11, 16, 16, 8, 24, 15, 8, 22, 12, 9, 21, 17, 11, 26, 24, 21, 10, 6, 5, 19, 17, 16, 10, 9, 9, 16, 13, 5, 13, 9, 6, 27, 23, 20, 17, 12, 8, 25, 24, 24, 9, 5, 5, 7, 6, 3, 19, 10, 4, 16, 11, 7, 23, 22, 15, 18, 14, 7, 17, 13, 13, 20, 14, 10, 19, 16, 6, 15, 15, 15, 4, 4, 4, 28, 27, 26, 18, 17, 17, 19, 17, 11, 13, 12, 11, 28, 27, 25, 10, 4, 1, 17, 13, 4, 14, 12, 9, 27, 25, 25, 27, 21, 18, 24, 21, 17, 20, 15, 10, 24, 16, 15, 7, 5, 3, 27, 23, 21, 17, 15, 7, 11, 11, 8, 22, 18, 8, 17, 11, 5, 21, 20, 19, 20, 15, 10, 24, 19, 16, 27, 23, 16, 29, 20, 10, 12, 8, 7, 14, 13, 9, 12, 9, 6, 15, 14, 13|];